letting initialStacks = [13, 3, 23, 10, 36, 27, 15, 44, 20, 28, 8, 33, 17, 30, 35, 24, 39, 38, 42, 7, 19, 41, 21, 51, 45, 12, 37, 29, 48, 14, 1, 11, 18, 9, 4, 34, 43, 46, 6, 26, 25, 31, 5, 16, 50, 32, 49, 2, 22, 40, 47]
